\ Model _copy
\ LP format - for model browsing. Use MPS format to capture full model detail.
Maximize
 
Subject To
 restriccion_infraestructura_existente[2,1]: - y_it[2,1] + z_it[2,1] <= 0
 restriccion_infraestructura_existente_3[2]: - y_it[2,1] + z_it[2,1] >= 1
Bounds
Binaries
 y_it[2,1] z_it[2,1]
End
